seeds/non-incremental/QF_NIA/20170427-VeryMax/ITS/From_AProVE_2014__RSA.jar-obl-17__terminationQ_0_0.smt2
(set-info :smt-lib-version 2.6)
(set-logic QF_NIA)
(set-info :source |
Generated by: Cristina Borralleras, Daniel Larraz, Albert Oliveras, Enric Rodriguez-Carbonell, Albert Rubio
Generated on: 2017-04-27
Generator: VeryMax
Application: Termination proving
Target solver: barcelogic
|)
(set-info :license "https://creativecommons.org/licenses/by/4.0/")
(set-info :category "industrial")
(set-info :status unknown)
(declare-fun Nl2arg11 () Int)
(declare-fun Nl2arg21 () Int)
(declare-fun Nl2arg31 () Int)
(declare-fun Nl2arg41 () Int)
(declare-fun Nl2arg51 () Int)
(declare-fun Nl2arg81 () Int)
(declare-fun Nl2arg91 () Int)
(declare-fun Nl2arg101 () Int)
(declare-fun Nl2arg111 () Int)
(declare-fun Nl2arg121 () Int)
(declare-fun Nl2arg131 () Int)
(declare-fun Nl2arg141 () Int)
(declare-fun Nl2arg151 () Int)
(declare-fun Nl2arg161 () Int)
(declare-fun Nl2arg171 () Int)
(declare-fun Nl2arg181 () Int)
(declare-fun Nl2arg191 () Int)
(declare-fun lam0n0 () Int)
(declare-fun lam0n1 () Int)
(declare-fun lam0n2 () Int)
(declare-fun lam0n3 () Int)
(declare-fun lam0n4 () Int)
(declare-fun lam0n5 () Int)
(declare-fun lam0n6 () Int)
(declare-fun lam0n7 () Int)
(declare-fun lam0n8 () Int)
(declare-fun lam0n14 () Int)
(declare-fun lam0n10 () Int)
(declare-fun lam0n11 () Int)
(declare-fun lam0n12 () Int)
(declare-fun lam0n13 () Int)
(declare-fun Nl2CT1 () Int)
(declare-fun lam0n9 () Int)
(declare-fun lam1n0 () Int)
(declare-fun lam1n1 () Int)
(declare-fun lam1n2 () Int)
(declare-fun lam1n3 () Int)
(declare-fun lam1n4 () Int)
(declare-fun lam1n5 () Int)
(declare-fun lam1n6 () Int)
(declare-fun lam1n7 () Int)
(declare-fun lam1n8 () Int)
(declare-fun lam1n14 () Int)
(declare-fun lam1n10 () Int)
(declare-fun lam1n11 () Int)
(declare-fun lam1n12 () Int)
(declare-fun lam1n13 () Int)
(declare-fun lam1n9 () Int)
(declare-fun lam2n0 () Int)
(declare-fun lam2n1 () Int)
(declare-fun lam2n2 () Int)
(declare-fun pBounded () Bool)
(declare-fun lam6n0 () Int)
(declare-fun lam6n1 () Int)
(declare-fun lam6n2 () Int)
(declare-fun lam6n3 () Int)
(declare-fun lam6n4 () Int)
(declare-fun lam6n5 () Int)
(declare-fun lam6n6 () Int)
(declare-fun lam6n7 () Int)
(declare-fun lam6n8 () Int)
(declare-fun lam6n14 () Int)
(declare-fun lam6n10 () Int)
(declare-fun lam6n11 () Int)
(declare-fun lam6n12 () Int)
(declare-fun lam6n13 () Int)
(declare-fun RFN1_CT () Int)
(declare-fun RFN1_arg1 () Int)
(declare-fun RFN1_arg2 () Int)
(declare-fun RFN1_arg3 () Int)
(declare-fun RFN1_arg4 () Int)
(declare-fun RFN1_arg5 () Int)
(declare-fun RFN1_arg8 () Int)
(declare-fun RFN1_arg9 () Int)
(declare-fun RFN1_arg10 () Int)
(declare-fun RFN1_arg12 () Int)
(declare-fun RFN1_arg13 () Int)
(declare-fun RFN1_arg14 () Int)
(declare-fun RFN1_arg15 () Int)
(declare-fun RFN1_arg16 () Int)
(declare-fun RFN1_arg17 () Int)
(declare-fun RFN1_arg18 () Int)
(declare-fun RFN1_arg19 () Int)
(declare-fun RFN1_arg11 () Int)
(declare-fun lam6n9 () Int)
(declare-fun lam5n0 () Int)
(declare-fun lam5n1 () Int)
(declare-fun lam5n2 () Int)
(declare-fun lam5n3 () Int)
(declare-fun lam5n4 () Int)
(declare-fun lam5n5 () Int)
(declare-fun lam5n6 () Int)
(declare-fun lam5n7 () Int)
(declare-fun lam5n8 () Int)
(declare-fun lam5n14 () Int)
(declare-fun lam5n10 () Int)
(declare-fun lam5n11 () Int)
(declare-fun lam5n12 () Int)
(declare-fun lam5n13 () Int)
(declare-fun lam5n9 () Int)
(declare-fun lam4n0 () Int)
(declare-fun lam4n1 () Int)
(declare-fun lam4n2 () Int)
(declare-fun lam4n3 () Int)
(declare-fun lam4n4 () Int)
(declare-fun lam4n5 () Int)
(declare-fun lam4n6 () Int)
(declare-fun lam4n7 () Int)
(declare-fun lam4n8 () Int)
(declare-fun lam4n14 () Int)
(declare-fun lam4n10 () Int)
(declare-fun lam4n11 () Int)
(declare-fun lam4n12 () Int)
(declare-fun lam4n13 () Int)
(declare-fun lam4n9 () Int)
(declare-fun lam3n0 () Int)
(declare-fun lam3n1 () Int)
(declare-fun lam3n2 () Int)
(declare-fun lam3n3 () Int)
(declare-fun lam3n4 () Int)
(declare-fun lam3n5 () Int)
(declare-fun lam3n6 () Int)
(declare-fun lam3n7 () Int)
(declare-fun lam3n8 () Int)
(declare-fun lam3n14 () Int)
(declare-fun lam3n10 () Int)
(declare-fun lam3n11 () Int)
(declare-fun lam3n12 () Int)
(declare-fun lam3n13 () Int)
(declare-fun lam3n9 () Int)
(assert ( and ( <= ( - 143 ) Nl2arg11 ) ( <= Nl2arg11 143 ) ( <= ( - 143 ) Nl2arg21 ) ( <= Nl2arg21 143 ) ( <= ( - 143 ) Nl2arg31 ) ( <= Nl2arg31 143 ) ( <= ( - 143 ) Nl2arg41 ) ( <= Nl2arg41 143 ) ( <= ( - 143 ) Nl2arg51 ) ( <= Nl2arg51 143 ) ( <= ( - 143 ) Nl2arg81 ) ( <= Nl2arg81 143 ) ( <= ( - 143 ) Nl2arg91 ) ( <= Nl2arg91 143 ) ( <= ( - 143 ) Nl2arg101 ) ( <= Nl2arg101 143 ) ( <= ( - 143 ) Nl2arg111 ) ( <= Nl2arg111 143 ) ( <= ( - 143 ) Nl2arg121 ) ( <= Nl2arg121 143 ) ( <= ( - 143 ) Nl2arg131 ) ( <= Nl2arg131 143 ) ( <= ( - 143 ) Nl2arg141 ) ( <= Nl2arg141 143 ) ( <= ( - 143 ) Nl2arg151 ) ( <= Nl2arg151 143 ) ( <= ( - 143 ) Nl2arg161 ) ( <= Nl2arg161 143 ) ( <= ( - 143 ) Nl2arg171 ) ( <= Nl2arg171 143 ) ( <= ( - 143 ) Nl2arg181 ) ( <= Nl2arg181 143 ) ( <= ( - 143 ) Nl2arg191 ) ( <= Nl2arg191 143 ) ))
(assert ( or ( and ( >= lam0n0 0 ) ( >= lam0n1 0 ) ( >= lam0n2 0 ) ( >= lam0n3 0 ) ( >= lam0n4 0 ) ( >= lam0n5 0 ) ( >= lam0n6 0 ) ( >= lam0n7 0 ) ( >= lam0n8 0 ) ( >= lam0n14 0 ) ( > ( + ( * 1 lam0n0 ) ( * 1 lam0n1 ) ( * 2 lam0n5 ) ( * 145 lam0n6 ) ( * 145 lam0n7 ) ( * 145 lam0n8 ) ( * ( - 11 ) lam0n10 ) ( * ( - 13 ) lam0n11 ) ( * ( - 120 ) lam0n12 ) ( * ( - 143 ) lam0n13 ) ( * Nl2CT1 lam0n14 ) ( - 1 ) ) 0 ) ( = ( + ( * ( - 1 ) lam0n0 ) ( * ( - 1 ) lam0n2 ) ( * ( - 1 ) lam0n3 ) ( * ( - 1 ) lam0n4 ) ( * ( - 1 ) lam0n5 ) ( * ( - 1 ) lam0n6 ) ( * Nl2arg11 lam0n14 ) ) 0 ) ( = ( * Nl2arg21 lam0n14 ) 0 ) ( = ( * Nl2arg31 lam0n14 ) 0 ) ( = ( * Nl2arg41 lam0n14 ) 0 ) ( = ( + ( * ( - 1 ) lam0n1 ) ( * Nl2arg51 lam0n14 ) ) 0 ) ( = ( + ( * 1 lam0n0 ) ( * ( - 1 ) lam0n2 ) ( * 1 lam0n10 ) ( * Nl2arg81 lam0n14 ) ) 0 ) ( = ( + ( * 1 lam0n0 ) ( * ( - 1 ) lam0n2 ) ( * 1 lam0n11 ) ( * Nl2arg91 lam0n14 ) ) 0 ) ( = ( + ( * 1 lam0n0 ) ( * ( - 1 ) lam0n2 ) ( * 1 lam0n12 ) ( * Nl2arg101 lam0n14 ) ) 0 ) ( = ( + ( * 1 lam0n0 ) ( * 1 lam0n2 ) ( * 1 lam0n5 ) ( * Nl2arg111 lam0n14 ) ) 0 ) ( = ( + ( * 1 lam0n9 ) ( * Nl2arg121 lam0n14 ) ) 0 ) ( = ( + ( * ( - 1 ) lam0n0 ) ( * 1 lam0n2 ) ( * 1 lam0n13 ) ( * Nl2arg131 lam0n14 ) ) 0 ) ( = ( * Nl2arg141 lam0n14 ) 0 ) ( = ( * Nl2arg151 lam0n14 ) 0 ) ( = ( * Nl2arg161 lam0n14 ) 0 ) ( = ( * Nl2arg171 lam0n14 ) 0 ) ( = ( * Nl2arg181 lam0n14 ) 0 ) ( = ( * Nl2arg191 lam0n14 ) 0 ) ( = ( + ( * 1 lam0n3 ) ( * ( - 1 ) lam0n7 ) ) 0 ) ( = ( + ( * 1 lam0n4 ) ( * ( - 1 ) lam0n8 ) ) 0 ) ) ( and ( >= lam1n0 0 ) ( >= lam1n1 0 ) ( >= lam1n2 0 ) ( >= lam1n3 0 ) ( >= lam1n4 0 ) ( >= lam1n5 0 ) ( >= lam1n6 0 ) ( >= lam1n7 0 ) ( >= lam1n8 0 ) ( >= lam1n14 0 ) ( > ( + ( * 1 lam1n0 ) ( * 1 lam1n1 ) ( * 2 lam1n5 ) ( * 145 lam1n6 ) ( * 145 lam1n7 ) ( * 145 lam1n8 ) ( * ( - 11 ) lam1n10 ) ( * ( - 13 ) lam1n11 ) ( * ( - 120 ) lam1n12 ) ( * ( - 143 ) lam1n13 ) ( * Nl2CT1 lam1n14 ) ( - 1 ( + ( + ( + ( + ( + ( + ( + ( + ( + ( + ( + ( + ( + ( + ( + ( + Nl2CT1 ( * Nl2arg11 0 ) ) ( * Nl2arg21 0 ) ) ( * Nl2arg31 0 ) ) ( * Nl2arg41 0 ) ) ( * Nl2arg51 0 ) ) ( * Nl2arg81 11 ) ) ( * Nl2arg91 13 ) ) ( * Nl2arg101 120 ) ) ( * Nl2arg121 0 ) ) ( * Nl2arg131 143 ) ) ( * Nl2arg141 0 ) ) ( * Nl2arg151 0 ) ) ( * Nl2arg161 0 ) ) ( * Nl2arg171 0 ) ) ( * Nl2arg181 0 ) ) ( * Nl2arg191 0 ) ) ) ) 0 ) ( = ( + ( * ( - 1 ) lam1n0 ) ( * ( - 1 ) lam1n2 ) ( * ( - 1 ) lam1n3 ) ( * ( - 1 ) lam1n4 ) ( * ( - 1 ) lam1n5 ) ( * ( - 1 ) lam1n6 ) ( * Nl2arg11 lam1n14 ) ) 0 ) ( = ( * Nl2arg21 lam1n14 ) 0 ) ( = ( * Nl2arg31 lam1n14 ) 0 ) ( = ( + ( * Nl2arg41 lam1n14 ) ( - ( + 0 ( * Nl2arg31 1 ) ) ) ) 0 ) ( = ( + ( * ( - 1 ) lam1n1 ) ( * Nl2arg51 lam1n14 ) ( - ( + 0 ( * Nl2arg21 1 ) ) ) ) 0 ) ( = ( + ( * 1 lam1n0 ) ( * ( - 1 ) lam1n2 ) ( * 1 lam1n10 ) ( * Nl2arg81 lam1n14 ) ) 0 ) ( = ( + ( * 1 lam1n0 ) ( * ( - 1 ) lam1n2 ) ( * 1 lam1n11 ) ( * Nl2arg91 lam1n14 ) ) 0 ) ( = ( + ( * 1 lam1n0 ) ( * ( - 1 ) lam1n2 ) ( * 1 lam1n12 ) ( * Nl2arg101 lam1n14 ) ) 0 ) ( = ( + ( * 1 lam1n0 ) ( * 1 lam1n2 ) ( * 1 lam1n5 ) ( * Nl2arg111 lam1n14 ) ( - ( + 0 Nl2arg111 ) ) ) 0 ) ( = ( + ( * 1 lam1n9 ) ( * Nl2arg121 lam1n14 ) ) 0 ) ( = ( + ( * ( - 1 ) lam1n0 ) ( * 1 lam1n2 ) ( * 1 lam1n13 ) ( * Nl2arg131 lam1n14 ) ) 0 ) ( = ( * Nl2arg141 lam1n14 ) 0 ) ( = ( * Nl2arg151 lam1n14 ) 0 ) ( = ( * Nl2arg161 lam1n14 ) 0 ) ( = ( * Nl2arg171 lam1n14 ) 0 ) ( = ( * Nl2arg181 lam1n14 ) 0 ) ( = ( * Nl2arg191 lam1n14 ) 0 ) ( = ( + ( * 1 lam1n3 ) ( * ( - 1 ) lam1n7 ) ) 0 ) ( = ( + ( * 1 lam1n4 ) ( * ( - 1 ) lam1n8 ) ( - ( + 0 ( * Nl2arg11 1 ) ) ) ) 0 ) ( = ( - ( + 0 ( * Nl2arg141 1 ) ) ) 0 ) ( = ( - ( + 0 ( * Nl2arg151 1 ) ) ) 0 ) ( = ( - ( + 0 ( * Nl2arg161 1 ) ) ) 0 ) ( = ( - ( + 0 ( * Nl2arg171 1 ) ) ) 0 ) ( = ( - ( + 0 ( * Nl2arg181 1 ) ) ) 0 ) ( = ( - ( + 0 ( * Nl2arg191 1 ) ) ) 0 ) ( = ( - ( + 0 ( * Nl2arg41 1 ) ) ) 0 ) ( = ( - ( + 0 ( * Nl2arg51 1 ) ) ) 0 ) ) ))
(assert ( and ( >= lam2n0 0 ) ( >= lam2n1 0 ) ( >= lam2n2 0 ) ( > ( + ( * 1 lam2n0 ) ( * 2 lam2n1 ) ( * 145 lam2n2 ) ( - 1 ( + ( + ( + ( + ( + ( + ( + ( + ( + ( + ( + ( + ( + ( + ( + ( + ( + Nl2CT1 ( * Nl2arg11 0 ) ) ( * Nl2arg21 0 ) ) ( * Nl2arg31 1 ) ) ( * Nl2arg41 0 ) ) ( * Nl2arg51 120 ) ) ( * Nl2arg81 11 ) ) ( * Nl2arg91 13 ) ) ( * Nl2arg101 120 ) ) ( * Nl2arg111 0 ) ) ( * Nl2arg121 0 ) ) ( * Nl2arg131 143 ) ) ( * Nl2arg141 0 ) ) ( * Nl2arg151 0 ) ) ( * Nl2arg161 0 ) ) ( * Nl2arg171 0 ) ) ( * Nl2arg181 0 ) ) ( * Nl2arg191 0 ) ) ) ) 0 ) ( = ( + ( * ( - 1 ) lam2n1 ) ( * ( - 1 ) lam2n2 ) ( - ( + 0 ( * Nl2arg11 1 ) ) ) ) 0 ) ( = ( + ( * 1 lam2n1 ) ( - ( + ( + 0 ( * Nl2arg21 1 ) ) ( * Nl2arg111 1 ) ) ) ) 0 ) ( = ( - ( + 0 ( * Nl2arg141 1 ) ) ) 0 ) ( = ( - ( + 0 ( * Nl2arg151 1 ) ) ) 0 ) ( = ( - ( + 0 ( * Nl2arg161 1 ) ) ) 0 ) ( = ( - ( + 0 ( * Nl2arg171 1 ) ) ) 0 ) ( = ( - ( + 0 ( * Nl2arg181 1 ) ) ) 0 ) ( = ( - ( + 0 ( * Nl2arg191 1 ) ) ) 0 ) ( = ( * ( - 1 ) lam2n0 ) 0 ) ))
(assert ( or ( not pBounded ) true ))
(assert ( or ( and ( and ( >= lam6n0 0 ) ( >= lam6n1 0 ) ( >= lam6n2 0 ) ( >= lam6n3 0 ) ( >= lam6n4 0 ) ( >= lam6n5 0 ) ( >= lam6n6 0 ) ( >= lam6n7 0 ) ( >= lam6n8 0 ) ( >= lam6n14 0 ) ( > ( + ( * 1 lam6n0 ) ( * 1 lam6n1 ) ( * 2 lam6n5 ) ( * 145 lam6n6 ) ( * 145 lam6n7 ) ( * 145 lam6n8 ) ( * ( - 11 ) lam6n10 ) ( * ( - 13 ) lam6n11 ) ( * ( - 120 ) lam6n12 ) ( * ( - 143 ) lam6n13 ) ( * Nl2CT1 lam6n14 ) ( - 1 ( - ( + ( + ( + ( + ( + ( + ( + ( + ( + ( + ( + ( + ( + ( + ( + ( + RFN1_CT ( * RFN1_arg1 0 ) ) ( * RFN1_arg2 0 ) ) ( * RFN1_arg3 0 ) ) ( * RFN1_arg4 0 ) ) ( * RFN1_arg5 0 ) ) ( * RFN1_arg8 11 ) ) ( * RFN1_arg9 13 ) ) ( * RFN1_arg10 120 ) ) ( * RFN1_arg12 0 ) ) ( * RFN1_arg13 143 ) ) ( * RFN1_arg14 0 ) ) ( * RFN1_arg15 0 ) ) ( * RFN1_arg16 0 ) ) ( * RFN1_arg17 0 ) ) ( * RFN1_arg18 0 ) ) ( * RFN1_arg19 0 ) ) RFN1_CT ) ) ) 0 ) ( = ( + ( * ( - 1 ) lam6n0 ) ( * ( - 1 ) lam6n2 ) ( * ( - 1 ) lam6n3 ) ( * ( - 1 ) lam6n4 ) ( * ( - 1 ) lam6n5 ) ( * ( - 1 ) lam6n6 ) ( * Nl2arg11 lam6n14 ) ( - ( - RFN1_arg1 ) ) ) 0 ) ( = ( + ( * Nl2arg21 lam6n14 ) ( - ( - RFN1_arg2 ) ) ) 0 ) ( = ( + ( * Nl2arg31 lam6n14 ) ( - ( - RFN1_arg3 ) ) ) 0 ) ( = ( + ( * Nl2arg41 lam6n14 ) ( - ( - ( + 0 ( * RFN1_arg3 1 ) ) RFN1_arg4 ) ) ) 0 ) ( = ( + ( * ( - 1 ) lam6n1 ) ( * Nl2arg51 lam6n14 ) ( - ( - ( + 0 ( * RFN1_arg2 1 ) ) RFN1_arg5 ) ) ) 0 ) ( = ( + ( * 1 lam6n0 ) ( * ( - 1 ) lam6n2 ) ( * 1 lam6n10 ) ( * Nl2arg81 lam6n14 ) ( - ( - RFN1_arg8 ) ) ) 0 ) ( = ( + ( * 1 lam6n0 ) ( * ( - 1 ) lam6n2 ) ( * 1 lam6n11 ) ( * Nl2arg91 lam6n14 ) ( - ( - RFN1_arg9 ) ) ) 0 ) ( = ( + ( * 1 lam6n0 ) ( * ( - 1 ) lam6n2 ) ( * 1 lam6n12 ) ( * Nl2arg101 lam6n14 ) ( - ( - RFN1_arg10 ) ) ) 0 ) ( = ( + ( * 1 lam6n0 ) ( * 1 lam6n2 ) ( * 1 lam6n5 ) ( * Nl2arg111 lam6n14 ) ( - ( - ( + 0 RFN1_arg11 ) RFN1_arg11 ) ) ) 0 ) ( = ( + ( * 1 lam6n9 ) ( * Nl2arg121 lam6n14 ) ( - ( - RFN1_arg12 ) ) ) 0 ) ( = ( + ( * ( - 1 ) lam6n0 ) ( * 1 lam6n2 ) ( * 1 lam6n13 ) ( * Nl2arg131 lam6n14 ) ( - ( - RFN1_arg13 ) ) ) 0 ) ( = ( + ( * Nl2arg141 lam6n14 ) ( - ( - RFN1_arg14 ) ) ) 0 ) ( = ( + ( * Nl2arg151 lam6n14 ) ( - ( - RFN1_arg15 ) ) ) 0 ) ( = ( + ( * Nl2arg161 lam6n14 ) ( - ( - RFN1_arg16 ) ) ) 0 ) ( = ( + ( * Nl2arg171 lam6n14 ) ( - ( - RFN1_arg17 ) ) ) 0 ) ( = ( + ( * Nl2arg181 lam6n14 ) ( - ( - RFN1_arg18 ) ) ) 0 ) ( = ( + ( * Nl2arg191 lam6n14 ) ( - ( - RFN1_arg19 ) ) ) 0 ) ( = ( + ( * 1 lam6n3 ) ( * ( - 1 ) lam6n7 ) ) 0 ) ( = ( + ( * 1 lam6n4 ) ( * ( - 1 ) lam6n8 ) ( - ( + 0 ( * RFN1_arg1 1 ) ) ) ) 0 ) ( = ( - ( + 0 ( * RFN1_arg14 1 ) ) ) 0 ) ( = ( - ( + 0 ( * RFN1_arg15 1 ) ) ) 0 ) ( = ( - ( + 0 ( * RFN1_arg16 1 ) ) ) 0 ) ( = ( - ( + 0 ( * RFN1_arg17 1 ) ) ) 0 ) ( = ( - ( + 0 ( * RFN1_arg18 1 ) ) ) 0 ) ( = ( - ( + 0 ( * RFN1_arg19 1 ) ) ) 0 ) ( = ( - ( + 0 ( * RFN1_arg4 1 ) ) ) 0 ) ( = ( - ( + 0 ( * RFN1_arg5 1 ) ) ) 0 ) ) ( and ( and ( >= lam5n0 0 ) ( >= lam5n1 0 ) ( >= lam5n2 0 ) ( >= lam5n3 0 ) ( >= lam5n4 0 ) ( >= lam5n5 0 ) ( >= lam5n6 0 ) ( >= lam5n7 0 ) ( >= lam5n8 0 ) ( >= lam5n14 0 ) ( > ( + ( * 1 lam5n0 ) ( * 1 lam5n1 ) ( * 2 lam5n5 ) ( * 145 lam5n6 ) ( * 145 lam5n7 ) ( * 145 lam5n8 ) ( * ( - 11 ) lam5n10 ) ( * ( - 13 ) lam5n11 ) ( * ( - 120 ) lam5n12 ) ( * ( - 143 ) lam5n13 ) ( * Nl2CT1 lam5n14 ) ( - 1 ( + ( - ( + ( + ( + ( + ( + ( + ( + ( + ( + ( + ( + ( + ( + ( + ( + ( + RFN1_CT ( * RFN1_arg1 0 ) ) ( * RFN1_arg2 0 ) ) ( * RFN1_arg3 0 ) ) ( * RFN1_arg4 0 ) ) ( * RFN1_arg5 0 ) ) ( * RFN1_arg8 11 ) ) ( * RFN1_arg9 13 ) ) ( * RFN1_arg10 120 ) ) ( * RFN1_arg12 0 ) ) ( * RFN1_arg13 143 ) ) ( * RFN1_arg14 0 ) ) ( * RFN1_arg15 0 ) ) ( * RFN1_arg16 0 ) ) ( * RFN1_arg17 0 ) ) ( * RFN1_arg18 0 ) ) ( * RFN1_arg19 0 ) ) RFN1_CT ) 1 ) ) ) 0 ) ( = ( + ( * ( - 1 ) lam5n0 ) ( * ( - 1 ) lam5n2 ) ( * ( - 1 ) lam5n3 ) ( * ( - 1 ) lam5n4 ) ( * ( - 1 ) lam5n5 ) ( * ( - 1 ) lam5n6 ) ( * Nl2arg11 lam5n14 ) ( - ( - RFN1_arg1 ) ) ) 0 ) ( = ( + ( * Nl2arg21 lam5n14 ) ( - ( - RFN1_arg2 ) ) ) 0 ) ( = ( + ( * Nl2arg31 lam5n14 ) ( - ( - RFN1_arg3 ) ) ) 0 ) ( = ( + ( * Nl2arg41 lam5n14 ) ( - ( - ( + 0 ( * RFN1_arg3 1 ) ) RFN1_arg4 ) ) ) 0 ) ( = ( + ( * ( - 1 ) lam5n1 ) ( * Nl2arg51 lam5n14 ) ( - ( - ( + 0 ( * RFN1_arg2 1 ) ) RFN1_arg5 ) ) ) 0 ) ( = ( + ( * 1 lam5n0 ) ( * ( - 1 ) lam5n2 ) ( * 1 lam5n10 ) ( * Nl2arg81 lam5n14 ) ( - ( - RFN1_arg8 ) ) ) 0 ) ( = ( + ( * 1 lam5n0 ) ( * ( - 1 ) lam5n2 ) ( * 1 lam5n11 ) ( * Nl2arg91 lam5n14 ) ( - ( - RFN1_arg9 ) ) ) 0 ) ( = ( + ( * 1 lam5n0 ) ( * ( - 1 ) lam5n2 ) ( * 1 lam5n12 ) ( * Nl2arg101 lam5n14 ) ( - ( - RFN1_arg10 ) ) ) 0 ) ( = ( + ( * 1 lam5n0 ) ( * 1 lam5n2 ) ( * 1 lam5n5 ) ( * Nl2arg111 lam5n14 ) ( - ( - ( + 0 RFN1_arg11 ) RFN1_arg11 ) ) ) 0 ) ( = ( + ( * 1 lam5n9 ) ( * Nl2arg121 lam5n14 ) ( - ( - RFN1_arg12 ) ) ) 0 ) ( = ( + ( * ( - 1 ) lam5n0 ) ( * 1 lam5n2 ) ( * 1 lam5n13 ) ( * Nl2arg131 lam5n14 ) ( - ( - RFN1_arg13 ) ) ) 0 ) ( = ( + ( * Nl2arg141 lam5n14 ) ( - ( - RFN1_arg14 ) ) ) 0 ) ( = ( + ( * Nl2arg151 lam5n14 ) ( - ( - RFN1_arg15 ) ) ) 0 ) ( = ( + ( * Nl2arg161 lam5n14 ) ( - ( - RFN1_arg16 ) ) ) 0 ) ( = ( + ( * Nl2arg171 lam5n14 ) ( - ( - RFN1_arg17 ) ) ) 0 ) ( = ( + ( * Nl2arg181 lam5n14 ) ( - ( - RFN1_arg18 ) ) ) 0 ) ( = ( + ( * Nl2arg191 lam5n14 ) ( - ( - RFN1_arg19 ) ) ) 0 ) ( = ( + ( * 1 lam5n3 ) ( * ( - 1 ) lam5n7 ) ) 0 ) ( = ( + ( * 1 lam5n4 ) ( * ( - 1 ) lam5n8 ) ( - ( + 0 ( * RFN1_arg1 1 ) ) ) ) 0 ) ( = ( - ( + 0 ( * RFN1_arg14 1 ) ) ) 0 ) ( = ( - ( + 0 ( * RFN1_arg15 1 ) ) ) 0 ) ( = ( - ( + 0 ( * RFN1_arg16 1 ) ) ) 0 ) ( = ( - ( + 0 ( * RFN1_arg17 1 ) ) ) 0 ) ( = ( - ( + 0 ( * RFN1_arg18 1 ) ) ) 0 ) ( = ( - ( + 0 ( * RFN1_arg19 1 ) ) ) 0 ) ( = ( - ( + 0 ( * RFN1_arg4 1 ) ) ) 0 ) ( = ( - ( + 0 ( * RFN1_arg5 1 ) ) ) 0 ) ) ( or ( and ( >= lam4n0 0 ) ( >= lam4n1 0 ) ( >= lam4n2 0 ) ( >= lam4n3 0 ) ( >= lam4n4 0 ) ( >= lam4n5 0 ) ( >= lam4n6 0 ) ( >= lam4n7 0 ) ( >= lam4n8 0 ) ( >= lam4n14 0 ) ( > ( + ( * 1 lam4n0 ) ( * 1 lam4n1 ) ( * 2 lam4n5 ) ( * 145 lam4n6 ) ( * 145 lam4n7 ) ( * 145 lam4n8 ) ( * ( - 11 ) lam4n10 ) ( * ( - 13 ) lam4n11 ) ( * ( - 120 ) lam4n12 ) ( * ( - 143 ) lam4n13 ) ( * Nl2CT1 lam4n14 ) ( - 1 ( - RFN1_CT ) ) ) 0 ) ( = ( + ( * ( - 1 ) lam4n0 ) ( * ( - 1 ) lam4n2 ) ( * ( - 1 ) lam4n3 ) ( * ( - 1 ) lam4n4 ) ( * ( - 1 ) lam4n5 ) ( * ( - 1 ) lam4n6 ) ( * Nl2arg11 lam4n14 ) ( - ( - RFN1_arg1 ) ) ) 0 ) ( = ( + ( * Nl2arg21 lam4n14 ) ( - ( - RFN1_arg2 ) ) ) 0 ) ( = ( + ( * Nl2arg31 lam4n14 ) ( - ( - RFN1_arg3 ) ) ) 0 ) ( = ( + ( * Nl2arg41 lam4n14 ) ( - ( - RFN1_arg4 ) ) ) 0 ) ( = ( + ( * ( - 1 ) lam4n1 ) ( * Nl2arg51 lam4n14 ) ( - ( - RFN1_arg5 ) ) ) 0 ) ( = ( + ( * 1 lam4n0 ) ( * ( - 1 ) lam4n2 ) ( * 1 lam4n10 ) ( * Nl2arg81 lam4n14 ) ( - ( - RFN1_arg8 ) ) ) 0 ) ( = ( + ( * 1 lam4n0 ) ( * ( - 1 ) lam4n2 ) ( * 1 lam4n11 ) ( * Nl2arg91 lam4n14 ) ( - ( - RFN1_arg9 ) ) ) 0 ) ( = ( + ( * 1 lam4n0 ) ( * ( - 1 ) lam4n2 ) ( * 1 lam4n12 ) ( * Nl2arg101 lam4n14 ) ( - ( - RFN1_arg10 ) ) ) 0 ) ( = ( + ( * 1 lam4n0 ) ( * 1 lam4n2 ) ( * 1 lam4n5 ) ( * Nl2arg111 lam4n14 ) ( - ( - RFN1_arg11 ) ) ) 0 ) ( = ( + ( * 1 lam4n9 ) ( * Nl2arg121 lam4n14 ) ( - ( - RFN1_arg12 ) ) ) 0 ) ( = ( + ( * ( - 1 ) lam4n0 ) ( * 1 lam4n2 ) ( * 1 lam4n13 ) ( * Nl2arg131 lam4n14 ) ( - ( - RFN1_arg13 ) ) ) 0 ) ( = ( + ( * Nl2arg141 lam4n14 ) ( - ( - RFN1_arg14 ) ) ) 0 ) ( = ( + ( * Nl2arg151 lam4n14 ) ( - ( - RFN1_arg15 ) ) ) 0 ) ( = ( + ( * Nl2arg161 lam4n14 ) ( - ( - RFN1_arg16 ) ) ) 0 ) ( = ( + ( * Nl2arg171 lam4n14 ) ( - ( - RFN1_arg17 ) ) ) 0 ) ( = ( + ( * Nl2arg181 lam4n14 ) ( - ( - RFN1_arg18 ) ) ) 0 ) ( = ( + ( * Nl2arg191 lam4n14 ) ( - ( - RFN1_arg19 ) ) ) 0 ) ( = ( + ( * 1 lam4n3 ) ( * ( - 1 ) lam4n7 ) ) 0 ) ( = ( + ( * 1 lam4n4 ) ( * ( - 1 ) lam4n8 ) ) 0 ) ) pBounded ) ) ) ( and ( >= lam3n0 0 ) ( >= lam3n1 0 ) ( >= lam3n2 0 ) ( >= lam3n3 0 ) ( >= lam3n4 0 ) ( >= lam3n5 0 ) ( >= lam3n6 0 ) ( >= lam3n7 0 ) ( >= lam3n8 0 ) ( >= lam3n14 0 ) ( > ( + ( * 1 lam3n0 ) ( * 1 lam3n1 ) ( * 2 lam3n5 ) ( * 145 lam3n6 ) ( * 145 lam3n7 ) ( * 145 lam3n8 ) ( * ( - 11 ) lam3n10 ) ( * ( - 13 ) lam3n11 ) ( * ( - 120 ) lam3n12 ) ( * ( - 143 ) lam3n13 ) ( * Nl2CT1 lam3n14 ) ( - 1 ) ) 0 ) ( = ( + ( * ( - 1 ) lam3n0 ) ( * ( - 1 ) lam3n2 ) ( * ( - 1 ) lam3n3 ) ( * ( - 1 ) lam3n4 ) ( * ( - 1 ) lam3n5 ) ( * ( - 1 ) lam3n6 ) ( * Nl2arg11 lam3n14 ) ) 0 ) ( = ( * Nl2arg21 lam3n14 ) 0 ) ( = ( * Nl2arg31 lam3n14 ) 0 ) ( = ( * Nl2arg41 lam3n14 ) 0 ) ( = ( + ( * ( - 1 ) lam3n1 ) ( * Nl2arg51 lam3n14 ) ) 0 ) ( = ( + ( * 1 lam3n0 ) ( * ( - 1 ) lam3n2 ) ( * 1 lam3n10 ) ( * Nl2arg81 lam3n14 ) ) 0 ) ( = ( + ( * 1 lam3n0 ) ( * ( - 1 ) lam3n2 ) ( * 1 lam3n11 ) ( * Nl2arg91 lam3n14 ) ) 0 ) ( = ( + ( * 1 lam3n0 ) ( * ( - 1 ) lam3n2 ) ( * 1 lam3n12 ) ( * Nl2arg101 lam3n14 ) ) 0 ) ( = ( + ( * 1 lam3n0 ) ( * 1 lam3n2 ) ( * 1 lam3n5 ) ( * Nl2arg111 lam3n14 ) ) 0 ) ( = ( + ( * 1 lam3n9 ) ( * Nl2arg121 lam3n14 ) ) 0 ) ( = ( + ( * ( - 1 ) lam3n0 ) ( * 1 lam3n2 ) ( * 1 lam3n13 ) ( * Nl2arg131 lam3n14 ) ) 0 ) ( = ( * Nl2arg141 lam3n14 ) 0 ) ( = ( * Nl2arg151 lam3n14 ) 0 ) ( = ( * Nl2arg161 lam3n14 ) 0 ) ( = ( * Nl2arg171 lam3n14 ) 0 ) ( = ( * Nl2arg181 lam3n14 ) 0 ) ( = ( * Nl2arg191 lam3n14 ) 0 ) ( = ( + ( * 1 lam3n3 ) ( * ( - 1 ) lam3n7 ) ) 0 ) ( = ( + ( * 1 lam3n4 ) ( * ( - 1 ) lam3n8 ) ) 0 ) ) ))
(check-sat)
(exit)
